Solver command line: ['C:\\Program Files\\IBM\\ILOG\\CPLEX_Studio2211\\cplex\\bin\\x64_win64\\cplex.exe']


Welcome to IBM(R) ILOG(R) CPLEX(R) Interactive Optimizer 22.1.1.0
  with Simplex, Mixed Integer & Barrier Optimizers
5725-A06 5725-A29 5724-Y48 5724-Y49 5724-Y54 5724-Y55 5655-Y21
Copyright IBM Corp. 1988, 2022.  All Rights Reserved.

Type 'help' for a list of available commands.
Type 'help' followed by a command name for more
information on commands.

CPLEX> Logfile 'cplex.log' closed.
Logfile 'C:\Users\wangy\Documents\GitHub\re_optimization\result_site_specific\tmpifzrxf7k.cplex.log' open.
CPLEX> Problem 'C:\Users\wangy\Documents\GitHub\re_optimization\result_site_specific\tmp7pkizvk7.pyomo.lp' read.
Read time = 0.23 sec. (7.29 ticks)
CPLEX> Problem name         : C:\Users\wangy\Documents\GitHub\re_optimization\result_site_specific\tmp7pkizvk7.pyomo.lp
Objective sense      : Minimize
Variables            :   52617  [Nneg: 27764,  Free: 8786,  Binary: 7,
                                 Other: 16060]
Objective nonzeros   :      14
Linear constraints   :   73052  [Less: 39437,  Greater: 3,  Equal: 33612]
  Nonzeros           :  181263
  RHS nonzeros       :    2371

Variables            : Min LB: 0.000000         Max UB: 1.000000       
Objective nonzeros   : Min   : 1.000000         Max   : 1.000000       
Linear constraints   :
  Nonzeros           : Min   : 0.001811119      Max   : 100000.0       
  RHS nonzeros       : Min   : 1.000000         Max   : 1000.000       
CPLEX> Version identifier: 22.1.1.0 | 2022-11-27 | 9160aff4d
Tried aggregator 3 times.
MIP Presolve eliminated 50794 rows and 31815 columns.
Aggregator did 8863 substitutions.
Reduced MIP has 13395 rows, 11939 columns, and 39904 nonzeros.
Reduced MIP has 5 binaries, 0 generals, 0 SOSs, and 0 indicators.
Presolve time = 0.12 sec. (149.88 ticks)
Found incumbent of value 162417.106389 after 0.16 sec. (171.86 ticks)
Probing time = 0.00 sec. (0.67 ticks)
Tried aggregator 1 time.
Detecting symmetries...
Reduced MIP has 13395 rows, 11939 columns, and 39904 nonzeros.
Reduced MIP has 5 binaries, 0 generals, 0 SOSs, and 0 indicators.
Presolve time = 0.01 sec. (23.84 ticks)
Probing time = 0.00 sec. (0.63 ticks)
MIP emphasis: balance optimality and feasibility.
MIP search method: dynamic search.
Parallel mode: deterministic, using up to 16 threads.
Root relaxation solution time = 0.33 sec. (375.02 ticks)

        Nodes                                         Cuts/
   Node  Left     Objective  IInf  Best Integer    Best Bound    ItCnt     Gap

*     0+    0                       162417.1064   -10127.0378           106.24%
*     0+    0                        10505.7987   -10127.0378           196.39%
      0     0    10394.7444     1    10505.7987    10394.7444       50    1.06%
*     0+    0                        10505.5158    10394.7444             1.05%
      0     0        cutoff          10505.5158    10505.5158       64    0.00%
Elapsed time = 0.67 sec. (660.96 ticks, tree = 0.01 MB, solutions = 3)

Mixed integer rounding cuts applied:  39

Root node processing (before b&c):
  Real time             =    0.67 sec. (663.36 ticks)
Parallel b&c, 16 threads:
  Real time             =    0.00 sec. (0.00 ticks)
  Sync time (average)   =    0.00 sec.
  Wait time (average)   =    0.00 sec.
                          ------------
Total (root+branch&cut) =    0.67 sec. (663.36 ticks)

Solution pool: 3 solutions saved.

MIP - Integer optimal solution:  Objective =  1.0505515842e+04
Solution time =    0.67 sec.  Iterations = 64  Nodes = 0
Deterministic time = 663.51 ticks  (987.37 ticks/sec)

CPLEX> Incumbent solution written to file 'C:\Users\wangy\Documents\GitHub\re_optimization\result_site_specific\tmp8di32_a1.cplex.sol'.
CPLEX> 
